p cnf 25 42
-1 2 3 4 5 6 7 8 9 10 11 13 22 0 
-2 1 3 4 5 6 7 8 9 10 11 13 22 0 
-3 1 2 4 5 6 7 8 9 10 11 13 22 0 
-4 1 2 3 5 6 7 8 9 10 11 13 23 0 
-4 1 2 3 5 6 7 8 9 10 11 13 22 0 
-2 1 3 4 5 6 7 8 9 10 11 13 24 0 
-1 2 3 4 5 6 7 8 9 10 11 13 24 0 
-3 1 2 4 5 6 7 8 9 10 11 13 24 0 
-4 1 2 3 5 6 7 8 9 10 11 13 24 0 
-5 1 2 3 4 6 7 8 9 10 11 13 24 0 
-6 1 2 3 4 5 7 8 9 10 11 13 24 0 
-6 1 2 3 4 5 7 8 9 10 11 13 22 0 
-5 1 2 3 4 6 7 8 9 10 11 13 22 0 
-7 1 2 3 4 5 6 8 9 10 11 13 23 0 
-8 1 2 3 4 5 6 7 9 10 11 13 23 0 
-9 1 2 3 4 5 6 7 8 10 11 13 23 0 
-7 1 2 3 4 5 6 8 9 10 11 13 22 0 
-9 1 2 3 4 5 6 7 8 10 11 13 22 0 
-10 1 2 3 4 5 6 7 8 9 11 13 22 0 
-8 1 2 3 4 5 6 7 9 10 11 13 22 0 
-11 1 2 3 4 5 6 7 8 9 10 13 22 0 
-7 1 2 3 4 5 6 8 9 10 11 13 24 0 
-9 1 2 3 4 5 6 7 8 10 11 13 24 0 
-10 1 2 3 4 5 6 7 8 9 11 13 24 0 
-8 1 2 3 4 5 6 7 9 10 11 13 24 0 
-11 1 2 3 4 5 6 7 8 9 10 13 24 0 
-12 25 0 
-13 1 2 3 4 5 6 7 8 9 10 11 24 0 
-14 23 0 
-13 1 2 3 4 5 6 7 8 9 10 11 22 0 
-15 22 0 
-16 22 0 
-17 25 0 
-18 22 0 
-18 24 0 
-19 23 0 
-18 25 0 
-20 25 0 
-19 24 0 
-21 25 0 
-19 22 0 
-19 25 0 
